NAME: ETSP
COMMENT: Generated by write_TSPLIB (R package TSP)
TYPE: TSP
DIMENSION: 9
EDGE_WEIGHT_TYPE: EUC_2D
NODE_COORD_SECTION
1 6.666218e+01 5.999232e+01
2 5.784788e+01 6.944424e+01
3 5.167664e+01 6.995990e+01
4 5.299833e+01 5.476526e+01
5 6.063212e+01 3.952689e+01
6 5.599163e+01 3.948834e+01
7 7.290485e+01 3.124792e+01
8 6.944014e+01 3.621077e+01
9 8.303612e+01 3.702298e+01
EOF
